nP = 3;
nT = 6;
nC1 = 7;
nC2 = 14;
nA = 47;
nD = 3;

arc_from = [1, 3, 1, 2, 1, 3, 3, 2, 3, 2, 1, 4, 4, 4, 5, 6, 6, 6, 7, 8, 8, 8, 9, 13, 11, 16, 10, 13, 16, 16, 16, 14, 10, 10, 15, 14, 16, 10, 11, 12, 12, 13, 14, 14, 15, 15, 16];
arc_to = [4, 4, 5, 5, 6, 6, 7, 8, 8, 9, 9, 15, 16, 10, 13, 12, 10, 11, 11, 13, 11, 16, 12, 17, 18, 19, 20, 21, 22, 23, 24, 25, 26, 27, 28, 29, 30, 18, 19, 24, 30, 30, 17, 19, 17, 23, 29];

supply = [399.67, 399.67, 399.67, 0.00, 0.00, 0.00, 0.00, 0.00, 0.00, 0.00, 0.00, 0.00, 0.00, 0.00, 0.00, 0.00, 0.00, 0.00, 0.00, 0.00, 0.00, 0.00, 0.00, 0.00, 0.00, 0.00, 0.00, 0.00, 0.00, 0.00];
demand = [0.00, 0.00, 0.00, 0.00, 0.00, 0.00, 0.00, 0.00, 0.00, 54.98, 51.72, 50.50, 50.93, 45.03, 50.15, 44.55, 44.12, 40.45, 37.14, 36.37, 45.96, 46.58, 36.12, 48.73, 37.05, 37.20, 36.56, 41.94, 45.24, 41.00];

max_capacity = [795, 1414, 3181];

install_cost = array2d(1..nA, 1..nD, [
  20, 24, 32,
  50, 62, 78,
  20, 24, 32,
  50, 62, 78,
  20, 24, 32,
  50, 62, 78,
  20, 24, 32,
  50, 62, 78,
  20, 24, 32,
  50, 62, 78,
  20, 24, 32,
  50, 62, 78,
  20, 24, 32,
  50, 62, 78,
  20, 24, 32,
  50, 62, 78,
  20, 24, 32,
  50, 62, 78,
  20, 24, 32,
  50, 62, 78,
  20, 24, 32,
  50, 62, 78,
  20, 24, 32,
  50, 62, 78,
  20, 24, 32,
  50, 62, 78,
  20, 24, 32,
  50, 62, 78,
  20, 24, 32,
  50, 62, 78,
  20, 24, 32,
  50, 62, 78,
  20, 24, 32,
  50, 62, 78,
  20, 24, 32,
  50, 62, 78,
  20, 24, 32,
  50, 62, 78,
  20, 24, 32,
  50, 62, 78,
  20, 24, 32,
  50, 62, 78,
  20, 24, 32,
  50, 62, 78,
  20, 24, 32,
  50, 62, 78,
  20, 24, 32
]);

trans_cost = [6.13, 5.55, 6.14, 3.02, 5.67, 6.54, 8.22, 5.22, 4.79, 5.25, 7.37, 6.49, 5.21, 6.77, 6.15, 7.45, 4.95, 5.51, 5.41, 3.80, 6.44, 6.39, 6.01, 5.65, 3.88, 5.37, 5.49, 4.80, 5.76, 6.61, 8.83, 6.26, 6.39, 5.89, 3.12, 5.96, 6.09, 9.69, 5.71, 6.45, 5.95, 4.25, 7.71, 7.13, 7.19, 4.64, 8.10];

% Metadata: {'tamaño': 'pequeñas', 'numero': 3, 'grupo': 5, 'demanda_total': 922.32, 'suministro_total': 1199.01, 'factor_holgura': 1.3, 'num_arcos': 47, 'conectividad': {'plantas_tanques': 11, 'tanques_transbordo': 12, 'transbordo_finales': 24}}
% Total supply: 1199.01
% Total demand: 922.32
% Balance factor: 1.30
%Finished in 9s 986msec.
%=== RESULTADOS OPTIMIZACIÓN RED DE TUBERÍAS - GRUPO 5 (CP-SAT) ===
%Grupo: 5
%Fecha/Hora: 2025-06-22
%Estado: Optimizado

%--- COSTOS ---
%Costo Instalación: $70.00
%Costo Transporte:  $43748.87
%Penalización:      $871390.00
%COSTO TOTAL:       $915208.87

%--- ESTADÍSTICAS DE RED ---
%Nodos: P=3 T=6 C1=7 C2=14 (Total: 30)
%Arcos totales: 47
%Arcos activos: 2
%Utilización: 4%

%--- FLUJOS ---
%Suministro total: 1199.01 l/min
%Demanda total: 922.3200000000002 l/min
%Flujo enviado: 50.93 l/min
%Demanda satisfecha: 50.93000000000018 l/min
%Demanda no satisfecha: 871.39 l/min
%Eficiencia: 5.521944661288947%

--- DIÁMETROS UTILIZADOS ---
D75mm: 2 arcos
D100mm: 0 arcos
D150mm: 0 arcos